DIMACS_lns/graph-1000-706.col
p edge 1000 1846
e 1 644
e 1 924
e 1 911
e 1 176
e 1 297
e 2 406
e 2 140
e 2 845
e 2 106
e 3 758
e 3 654
e 3 564
e 3 966
e 3 801
e 3 242
e 3 183
e 5 652
e 5 968
e 5 824
e 6 37
e 6 624
e 6 902
e 7 928
e 7 52
e 7 976
e 7 859
e 7 66
e 8 265
e 8 958
e 8 978
e 8 192
e 8 954
e 8 742
e 10 817
e 10 432
e 10 279
e 10 605
e 10 896
e 10 415
e 10 125
e 10 632
e 11 123
e 11 689
e 11 464
e 11 877
e 11 356
e 12 546
e 12 559
e 12 643
e 13 984
e 13 258
e 13 626
e 13 40
e 13 151
e 13 126
e 14 675
e 14 277
e 14 30
e 14 722
e 15 854
e 15 588
e 15 626
e 15 155
e 16 258
e 16 486
e 16 174
e 17 428
e 17 772
e 17 176
e 17 123
e 18 678
e 18 498
e 18 497
e 19 833
e 19 115
e 19 365
e 19 982
e 19 441
e 19 856
e 20 361
e 20 368
e 20 867
e 20 821
e 20 257
e 20 928
e 20 652
e 21 198
e 21 663
e 21 174
e 22 318
e 22 959
e 22 854
e 23 933
e 23 473
e 23 842
e 24 867
e 24 812
e 24 676
e 24 996
e 24 266
e 24 365
e 24 83
e 25 91
e 25 353
e 25 575
e 26 977
e 26 886
e 26 471
e 26 297
e 27 707
e 27 433
e 27 193
e 28 664
e 28 860
e 28 891
e 28 801
e 28 774
e 28 352
e 30 393
e 30 937
e 30 482
e 31 400
e 31 106
e 31 205
e 31 265
e 31 618
e 33 413
e 33 108
e 33 49
e 33 351
e 33 342
e 33 799
e 33 713
e 34 396
e 34 307
e 34 795
e 34 345
e 34 678
e 34 525
e 34 339
e 34 349
e 34 735
e 34 967
e 35 711
e 35 99
e 35 316
e 35 772
e 36 565
e 36 920
e 36 101
e 36 871
e 36 444
e 37 563
e 37 412
e 37 175
e 38 286
e 38 243
e 38 107
e 38 370
e 40 277
e 40 729
e 40 682
e 40 162
e 40 761
e 41 104
e 41 256
e 41 126
e 41 500
e 41 231
e 41 194
e 41 322
e 41 902
e 42 619
e 42 870
e 42 521
e 42 511
e 42 742
e 42 159
e 43 761
e 43 818
e 43 441
e 43 212
e 43 704
e 44 877
e 44 133
e 44 861
e 47 70
e 47 55
e 47 802
e 47 310
e 47 718
e 47 886
e 47 676
e 47 456
e 47 487
e 47 246
e 48 302
e 48 370
e 48 881
e 48 144
e 48 741
e 49 669
e 49 513
e 49 876
e 49 856
e 49 670
e 50 506
e 50 671
e 50 347
e 50 418
e 50 907
e 50 441
e 51 146
e 51 715
e 51 758
e 51 192
e 52 78
e 52 301
e 52 228
e 55 552
e 55 487
e 56 864
e 56 533
e 56 188
e 56 106
e 57 748
e 57 457
e 57 311
e 58 691
e 58 807
e 58 565
e 58 584
e 60 783
e 60 688
e 60 523
e 60 308
e 60 930
e 60 796
e 61 608
e 61 418
e 61 898
e 61 334
e 63 264
e 63 78
e 63 738
e 63 971
e 64 330
e 64 743
e 64 325
e 64 437
e 64 119
e 65 864
e 65 519
e 65 497
e 66 576
e 66 458
e 66 632
e 67 680
e 67 621
e 67 955
e 67 354
e 68 464
e 68 967
e 68 571
e 68 874
e 70 291
e 70 452
e 70 484
e 70 708
e 71 139
e 71 863
e 71 307
e 71 839
e 71 747
e 71 626
e 71 371
e 71 74
e 72 320
e 72 186
e 72 542
e 72 476
e 74 593
e 74 952
e 74 830
e 77 584
e 77 86
e 77 288
e 77 650
e 78 469
e 78 346
e 78 645
e 78 898
e 78 190
e 79 638
e 79 854
e 79 324
e 80 881
e 80 810
e 80 449
e 81 575
e 81 653
e 81 418
e 82 266
e 82 752
e 82 162
e 83 271
e 83 212
e 83 270
e 83 328
e 84 323
e 84 741
e 84 922
e 84 757
e 84 91
e 86 791
e 86 382
e 86 524
e 87 638
e 87 869
e 87 805
e 87 822
e 87 510
e 87 624
e 87 585
e 87 409
e 87 685
e 88 521
e 88 207
e 88 932
e 91 224
e 91 877
e 91 469
e 91 486
e 91 676
e 91 261
e 91 880
e 93 277
e 93 443
e 93 984
e 94 491
e 94 526
e 94 369
e 94 830
e 95 273
e 95 406
e 95 172
e 97 663
e 97 526
e 97 181
e 97 179
e 98 234
e 98 206
e 98 753
e 99 821
e 99 201
e 100 780
e 100 949
e 100 243
e 100 759
e 100 117
e 100 449
e 101 735
e 101 566
e 102 186
e 102 557
e 102 585
e 102 930
e 104 685
e 104 593
e 104 486
e 105 888
e 105 247
e 105 945
e 105 946
e 106 388
e 106 518
e 106 117
e 106 548
e 106 162
e 106 442
e 106 824
e 106 817
e 107 242
e 107 265
e 107 281
e 108 493
e 108 804
e 108 262
e 108 888
e 108 141
e 108 139
e 108 545
e 108 693
e 108 529
e 109 221
e 109 156
e 109 984
e 109 153
e 110 469
e 110 188
e 110 751
e 110 932
e 111 552
e 111 934
e 111 748
e 112 197
e 112 180
e 112 891
e 114 712
e 114 574
e 114 230
e 114 819
e 114 814
e 115 438
e 115 418
e 115 248
e 115 224
e 115 666
e 116 712
e 116 600
e 116 347
e 116 635
e 116 154
e 117 906
e 117 899
e 117 596
e 117 760
e 117 404
e 117 587
e 118 900
e 118 633
e 118 222
e 118 783
e 119 314
e 119 933
e 120 653
e 120 732
e 120 834
e 121 960
e 121 939
e 121 406
e 121 149
e 122 221
e 122 509
e 122 182
e 122 319
e 123 860
e 123 610
e 124 349
e 124 129
e 124 635
e 125 452
e 125 881
e 125 910
e 125 482
e 126 221
e 126 362
e 126 947
e 128 303
e 128 666
e 128 651
e 128 426
e 129 760
e 129 590
e 129 584
e 129 293
e 129 369
e 130 279
e 130 791
e 130 637
e 130 898
e 130 471
e 130 150
e 130 676
e 130 722
e 132 964
e 132 346
e 132 439
e 133 476
e 133 979
e 133 608
e 133 698
e 133 259
e 133 163
e 133 308
e 133 589
e 135 846
e 135 664
e 135 436
e 135 161
e 136 246
e 136 161
e 136 730
e 139 475
e 139 147
e 140 952
e 140 780
e 141 172
e 141 161
e 141 557
e 141 862
e 142 964
e 142 680
e 142 696
e 143 247
e 143 249
e 143 521
e 144 329
e 144 768
e 144 582
e 144 381
e 144 790
e 145 706
e 145 953
e 145 750
e 145 861
e 145 420
e 146 861
e 146 833
e 146 514
e 146 857
e 146 207
e 146 894
e 146 375
e 146 463
e 146 757
e 146 921
e 146 864
e 146 716
e 147 317
e 147 608
e 147 845
e 148 383
e 148 499
e 148 546
e 148 551
e 149 896
e 149 188
e 149 913
e 149 884
e 150 294
e 150 665
e 151 337
e 151 564
e 151 922
e 151 580
e 151 540
e 152 230
e 152 731
e 152 617
e 153 208
e 153 609
e 153 347
e 153 900
e 154 670
e 154 226
e 154 915
e 155 834
e 155 396
e 156 322
e 156 760
e 156 481
e 157 620
e 157 787
e 157 352
e 158 302
e 158 442
e 158 220
e 158 888
e 159 398
e 159 565
e 160 213
e 160 582
e 160 179
e 160 393
e 161 346
e 161 266
e 162 511
e 162 282
e 162 732
e 162 708
e 162 838
e 163 181
e 163 707
e 164 942
e 164 736
e 164 481
e 164 930
e 166 581
e 166 323
e 166 265
e 166 304
e 166 478
e 167 230
e 167 639
e 167 591
e 167 702
e 167 863
e 167 812
e 170 839
e 170 456
e 170 735
e 170 300
e 171 475
e 171 621
e 171 720
e 171 423
e 172 340
e 172 187
e 172 570
e 173 334
e 173 911
e 173 191
e 173 719
e 174 660
e 174 801
e 174 822
e 175 266
e 175 572
e 175 710
e 175 239
e 175 997
e 176 460
e 176 776
e 177 709
e 177 237
e 177 618
e 178 288
e 178 790
e 178 339
e 179 983
e 179 786
e 180 460
e 180 722
e 180 757
e 181 956
e 181 984
e 181 861
e 182 842
e 182 742
e 182 616
e 183 320
e 183 551
e 183 875
e 183 193
e 183 224
e 185 885
e 185 285
e 185 370
e 185 996
e 185 449
e 185 706
e 185 343
e 186 581
e 186 491
e 187 839
e 187 376
e 187 387
e 188 695
e 188 337
e 188 589
e 188 708
e 189 728
e 189 348
e 189 484
e 189 934
e 189 759
e 190 629
e 190 488
e 191 388
e 191 294
e 191 586
e 192 252
e 192 784
e 192 821
e 192 293
e 192 366
e 192 748
e 192 906
e 193 713
e 193 973
e 193 555
e 193 202
e 193 271
e 193 358
e 194 554
e 194 451
e 194 483
e 195 458
e 195 867
e 195 658
e 195 818
e 195 346
e 196 368
e 196 742
e 196 746
e 197 729
e 197 726
e 198 524
e 198 895
e 201 848
e 201 648
e 201 491
e 201 526
e 201 891
e 201 686
e 202 620
e 202 982
e 202 539
e 203 645
e 203 860
e 203 492
e 203 774
e 203 221
e 203 514
e 205 375
e 205 328
e 205 827
e 205 937
e 206 580
e 206 282
e 207 658
e 207 959
e 207 390
e 207 439
e 207 824
e 208 991
e 208 671
e 208 481
e 208 434
e 208 475
e 212 864
e 212 926
e 212 774
e 212 751
e 212 451
e 213 467
e 213 566
e 213 857
e 213 271
e 213 958
e 219 406
e 219 894
e 219 872
e 220 702
e 220 555
e 221 782
e 222 859
e 222 998
e 224 230
e 224 542
e 226 976
e 226 355
e 226 370
e 226 498
e 228 434
e 228 792
e 228 314
e 228 943
e 228 768
e 229 742
e 229 781
e 229 356
e 229 508
e 230 907
e 230 249
e 230 616
e 231 497
e 231 341
e 231 563
e 231 876
e 234 291
e 234 846
e 234 492
e 234 346
e 234 635
e 234 418
e 235 579
e 235 492
e 235 867
e 237 321
e 237 346
e 239 664
e 239 819
e 239 314
e 239 878
e 240 444
e 240 372
e 240 950
e 242 282
e 242 933
e 242 292
e 242 553
e 242 341
e 243 799
e 243 257
e 246 806
e 246 828
e 246 923
e 247 882
e 247 620
e 247 671
e 247 605
e 247 711
e 248 703
e 248 527
e 248 617
e 249 385
e 249 286
e 249 957
e 249 948
e 249 257
e 250 581
e 250 406
e 250 803
e 252 369
e 252 354
e 252 715
e 252 667
e 253 981
e 253 667
e 253 441
e 253 695
e 254 507
e 254 959
e 254 807
e 256 325
e 256 891
e 256 478
e 256 937
e 257 946
e 257 822
e 257 336
e 258 869
e 258 609
e 258 968
e 258 275
e 258 282
e 259 613
e 259 901
e 261 966
e 261 496
e 261 683
e 261 471
e 261 727
e 262 320
e 262 569
e 262 723
e 262 378
e 262 550
e 264 888
e 264 437
e 265 833
e 265 593
e 265 626
e 266 700
e 266 748
e 266 285
e 266 867
e 266 899
e 267 297
e 267 559
e 267 556
e 268 694
e 268 996
e 268 591
e 268 878
e 268 679
e 270 371
e 270 827
e 270 716
e 271 272
e 271 434
e 271 337
e 272 784
e 272 569
e 272 387
e 272 620
e 273 966
e 273 381
e 273 885
e 274 356
e 274 742
e 274 275
e 274 876
e 274 548
e 275 596
e 275 633
e 275 901
e 277 967
e 279 526
e 279 851
e 279 392
e 279 655
e 281 528
e 281 389
e 281 717
e 282 581
e 283 569
e 283 923
e 283 651
e 283 460
e 284 460
e 284 997
e 284 645
e 285 847
e 285 850
e 285 598
e 286 307
e 286 495
e 286 320
e 288 318
e 288 550
e 288 969
e 290 723
e 290 902
e 290 592
e 290 695
e 290 807
e 291 535
e 291 598
e 291 977
e 291 310
e 291 757
e 291 821
e 292 992
e 292 471
e 292 870
e 292 735
e 293 679
e 293 864
e 293 606
e 294 923
e 294 860
e 294 354
e 297 530
e 297 550
e 299 994
e 299 337
e 299 925
e 300 616
e 300 747
e 300 579
e 300 732
e 301 680
e 301 313
e 301 462
e 301 493
e 301 721
e 302 588
e 302 989
e 303 395
e 303 967
e 303 818
e 303 581
e 304 566
e 304 753
e 304 643
e 304 781
e 304 449
e 307 586
e 307 803
e 308 361
e 308 930
e 308 541
e 308 720
e 309 660
e 309 495
e 309 946
e 309 394
e 309 845
e 309 390
e 310 746
e 310 997
e 310 717
e 311 898
e 311 610
e 311 661
e 311 346
e 311 743
e 311 936
e 312 566
e 312 855
e 312 839
e 312 943
e 313 814
e 313 317
e 313 468
e 313 356
e 313 601
e 314 483
e 316 712
e 316 531
e 316 665
e 316 752
e 316 683
e 316 486
e 317 819
e 317 393
e 318 634
e 318 349
e 318 796
e 318 745
e 318 960
e 319 968
e 319 556
e 320 395
e 320 773
e 320 808
e 320 626
e 320 932
e 321 626
e 321 821
e 321 637
e 321 798
e 321 979
e 322 856
e 322 710
e 322 728
e 323 519
e 323 834
e 323 748
e 323 404
e 323 952
e 324 726
e 324 754
e 324 447
e 325 630
e 326 859
e 326 409
e 326 780
e 328 475
e 329 861
e 329 817
e 330 989
e 330 605
e 330 583
e 333 343
e 333 991
e 333 590
e 333 462
e 334 731
e 334 534
e 336 981
e 336 651
e 336 501
e 336 518
e 336 509
e 339 594
e 339 638
e 340 966
e 340 628
e 340 406
e 340 500
e 340 829
e 341 910
e 341 352
e 341 844
e 342 985
e 342 605
e 342 463
e 342 428
e 342 378
e 343 839
e 343 745
e 343 564
e 345 615
e 345 541
e 346 876
e 346 850
e 346 643
e 346 618
e 346 575
e 347 365
e 347 838
e 348 432
e 348 586
e 349 393
e 349 645
e 349 707
e 349 913
e 349 808
e 349 631
e 349 612
e 350 663
e 350 533
e 350 894
e 351 585
e 351 579
e 351 442
e 351 884
e 351 922
e 351 669
e 352 802
e 353 466
e 353 604
e 353 579
e 353 535
e 354 384
e 355 925
e 355 426
e 355 545
e 356 589
e 356 412
e 358 934
e 358 629
e 360 930
e 360 535
e 360 375
e 360 656
e 360 616
e 361 663
e 361 413
e 361 791
e 361 467
e 361 521
e 362 710
e 362 745
e 362 601
e 362 673
e 365 661
e 366 769
e 366 438
e 366 497
e 368 590
e 369 505
e 369 817
e 369 555
e 369 429
e 370 518
e 370 761
e 371 421
e 372 804
e 372 880
e 372 737
e 373 737
e 373 673
e 373 731
e 373 887
e 373 696
e 375 580
e 375 475
e 375 741
e 376 863
e 376 869
e 376 557
e 376 407
e 378 722
e 378 387
e 381 856
e 381 623
e 382 806
e 382 431
e 382 734
e 382 624
e 383 432
e 383 848
e 384 965
e 384 406
e 384 932
e 384 734
e 385 800
e 385 533
e 387 981
e 387 453
e 387 886
e 387 630
e 388 805
e 389 956
e 389 998
e 389 460
e 389 462
e 390 408
e 390 702
e 392 569
e 392 551
e 393 693
e 393 492
e 394 475
e 394 753
e 395 753
e 396 740
e 396 496
e 398 709
e 398 961
e 399 419
e 399 572
e 399 824
e 400 800
e 400 494
e 400 663
e 400 407
e 402 713
e 402 644
e 402 914
e 402 829
e 404 796
e 404 539
e 404 939
e 406 746
e 406 745
e 407 617
e 407 730
e 408 581
e 408 965
e 408 963
e 409 844
e 409 424
e 409 959
e 410 458
e 410 864
e 410 989
e 412 846
e 413 434
e 413 477
e 414 487
e 414 548
e 414 807
e 414 606
e 414 621
e 414 889
e 414 726
e 414 587
e 414 685
e 414 623
e 415 810
e 415 679
e 415 496
e 417 939
e 417 456
e 417 802
e 418 509
e 418 930
e 419 668
e 419 855
e 420 465
e 420 713
e 420 871
e 420 590
e 420 910
e 420 773
e 421 823
e 421 635
e 421 712
e 423 718
e 423 790
e 424 590
e 424 907
e 425 976
e 425 721
e 425 994
e 426 443
e 426 854
e 426 782
e 426 920
e 426 839
e 428 973
e 428 982
e 428 748
e 428 429
e 429 792
e 429 541
e 431 949
e 431 939
e 431 709
e 432 982
e 432 676
e 432 668
e 432 548
e 432 847
e 433 477
e 433 857
e 433 467
e 434 706
e 434 466
e 434 648
e 436 761
e 436 751
e 436 910
e 437 882
e 437 531
e 438 572
e 439 859
e 442 676
e 442 824
e 442 942
e 442 907
e 442 586
e 443 463
e 443 453
e 444 522
e 444 729
e 444 746
e 447 591
e 447 658
e 449 769
e 451 901
e 452 604
e 452 589
e 452 779
e 453 769
e 453 693
e 453 606
e 453 896
e 456 937
e 456 510
e 456 740
e 456 682
e 456 985
e 457 870
e 457 500
e 457 819
e 457 683
e 458 869
e 461 998
e 461 621
e 461 968
e 461 607
e 462 962
e 463 956
e 463 727
e 463 586
e 464 680
e 465 957
e 465 796
e 465 907
e 465 876
e 465 779
e 466 669
e 466 786
e 466 818
e 467 589
e 467 713
e 468 551
e 468 861
e 468 795
e 469 980
e 471 525
e 471 827
e 473 971
e 473 630
e 473 658
e 474 926
e 474 619
e 474 579
e 475 493
e 476 968
e 477 617
e 477 787
e 477 745
e 478 716
e 478 804
e 478 685
e 478 828
e 478 891
e 478 960
e 481 620
e 481 752
e 481 845
e 482 589
e 482 754
e 482 580
e 483 864
e 483 659
e 483 806
e 484 973
e 484 977
e 484 952
e 484 542
e 484 992
e 484 847
e 486 513
e 487 862
e 487 804
e 487 776
e 488 615
e 488 970
e 491 857
e 491 772
e 491 870
e 491 825
e 492 967
e 492 680
e 493 679
e 493 732
e 494 743
e 494 513
e 494 877
e 494 664
e 494 562
e 494 976
e 495 563
e 495 718
e 495 792
e 496 914
e 496 637
e 497 778
e 498 621
e 498 683
e 498 635
e 498 569
e 498 959
e 499 848
e 499 525
e 499 717
e 499 932
e 499 594
e 500 695
e 500 924
e 500 854
e 500 920
e 500 736
e 501 575
e 501 806
e 501 686
e 501 827
e 505 946
e 505 778
e 506 808
e 506 582
e 506 908
e 507 730
e 507 828
e 508 717
e 508 645
e 509 541
e 509 961
e 509 523
e 510 679
e 511 740
e 512 958
e 512 582
e 512 661
e 512 616
e 512 631
e 512 971
e 512 923
e 513 555
e 514 633
e 514 715
e 514 607
e 514 899
e 514 626
e 517 856
e 517 678
e 517 909
e 517 548
e 517 955
e 518 962
e 518 632
e 519 583
e 522 523
e 522 751
e 523 925
e 523 997
e 524 584
e 525 972
e 525 576
e 526 635
e 526 759
e 527 981
e 527 758
e 527 946
e 528 736
e 528 738
e 528 998
e 528 984
e 528 724
e 528 632
e 528 829
e 528 693
e 529 825
e 529 742
e 529 960
e 530 875
e 530 659
e 531 887
e 531 790
e 534 548
e 534 748
e 535 965
e 535 689
e 535 615
e 535 915
e 535 970
e 539 889
e 540 922
e 540 608
e 540 926
e 541 660
e 541 589
e 542 907
e 545 922
e 546 553
e 548 949
e 548 827
e 550 954
e 550 922
e 551 635
e 551 971
e 551 878
e 552 805
e 552 783
e 553 787
e 553 566
e 553 980
e 554 696
e 554 920
e 555 710
e 555 801
e 555 838
e 555 721
e 556 654
e 556 685
e 557 887
e 557 799
e 557 889
e 557 917
e 559 829
e 559 679
e 562 803
e 562 650
e 562 616
e 563 842
e 563 671
e 563 586
e 564 574
e 565 683
e 566 907
e 570 838
e 570 779
e 571 798
e 571 689
e 572 805
e 574 851
e 575 754
e 575 889
e 575 842
e 576 947
e 579 641
e 579 665
e 580 979
e 581 631
e 583 963
e 584 946
e 584 885
e 585 696
e 586 609
e 587 780
e 588 596
e 588 943
e 588 601
e 588 782
e 589 719
e 590 942
e 590 723
e 592 950
e 592 712
e 593 600
e 593 948
e 593 891
e 594 678
e 595 664
e 595 856
e 595 746
e 595 717
e 596 950
e 598 958
e 598 666
e 600 860
e 601 769
e 602 900
e 602 787
e 602 670
e 602 800
e 604 981
e 604 718
e 605 895
e 605 953
e 606 650
e 606 804
e 606 741
e 606 776
e 607 979
e 607 924
e 607 936
e 608 798
e 608 926
e 609 839
e 610 992
e 610 740
e 612 921
e 612 680
e 612 920
e 612 977
e 612 709
e 612 844
e 613 633
e 613 922
e 613 618
e 615 992
e 616 678
e 617 644
e 618 737
e 619 655
e 620 829
e 621 802
e 623 943
e 628 728
e 628 874
e 628 972
e 628 644
e 629 969
e 629 781
e 631 696
e 631 932
e 632 680
e 632 913
e 632 891
e 633 972
e 633 887
e 634 748
e 634 805
e 634 891
e 635 978
e 635 769
e 637 948
e 637 679
e 639 802
e 639 962
e 639 766
e 639 753
e 639 907
e 639 763
e 641 889
e 641 969
e 641 994
e 644 961
e 644 877
e 648 766
e 648 863
e 651 933
e 652 921
e 653 759
e 653 724
e 653 754
e 654 932
e 655 954
e 655 967
e 656 810
e 656 738
e 656 936
e 659 667
e 659 698
e 659 981
e 660 887
e 661 768
e 661 955
e 663 737
e 664 671
e 664 735
e 665 706
e 666 763
e 667 783
e 667 991
e 668 862
e 669 884
e 673 998
e 673 979
e 675 726
e 675 678
e 676 729
e 676 969
e 678 711
e 678 708
e 679 825
e 680 982
e 680 876
e 680 731
e 682 715
e 683 807
e 683 983
e 683 938
e 686 945
e 686 841
e 686 795
e 688 947
e 688 799
e 689 724
e 691 751
e 691 758
e 694 860
e 694 784
e 694 736
e 695 710
e 696 860
e 698 864
e 700 747
e 700 962
e 703 974
e 703 956
e 704 731
e 704 930
e 706 753
e 706 751
e 707 830
e 712 971
e 715 954
e 715 796
e 717 867
e 718 722
e 719 726
e 719 822
e 719 874
e 720 960
e 722 781
e 723 808
e 723 796
e 723 848
e 726 821
e 727 908
e 728 828
e 729 862
e 730 783
e 730 804
e 731 759
e 731 950
e 731 804
e 734 949
e 734 850
e 736 748
e 738 875
e 740 854
e 740 917
e 741 894
e 747 894
e 747 937
e 750 926
e 750 974
e 750 945
e 751 850
e 753 933
e 754 778
e 759 926
e 759 870
e 760 862
e 761 909
e 763 898
e 763 871
e 766 976
e 766 783
e 768 772
e 772 953
e 773 991
e 774 798
e 774 921
e 775 851
e 775 788
e 775 902
e 776 985
e 778 962
e 778 850
e 779 946
e 782 806
e 782 898
e 783 907
e 784 924
e 786 909
e 788 803
e 788 791
e 790 908
e 791 834
e 792 808
e 795 870
e 795 984
e 799 921
e 800 810
e 801 913
e 803 896
e 803 964
e 805 966
e 812 938
e 814 925
e 817 851
e 822 971
e 823 914
e 823 909
e 823 881
e 825 968
e 827 877
e 828 958
e 829 872
e 829 888
e 834 992
e 838 966
e 841 877
e 841 872
e 842 871
e 842 960
e 845 998
e 850 880
e 855 902
e 855 947
e 855 885
e 857 934
e 859 864
e 859 862
e 862 891
e 864 906
e 864 874
e 869 949
e 870 950
e 870 965
e 875 933
e 876 983
e 878 946
e 878 933
e 880 997
e 880 949
e 882 974
e 884 907
e 886 932
e 887 967
e 888 934
e 888 913
e 895 965
e 896 949
e 899 921
e 900 970
e 906 978
e 909 911
e 910 930
e 913 928
e 914 981
e 915 989
e 917 938
e 921 950
e 938 998
e 947 994
e 955 958
e 956 963
e 957 966
e 958 963
e 963 977
e 980 981
e 981 997
