txt_Ins/graph-1000-706.txt
n 1000
e 0 643
e 0 923
e 0 910
e 0 175
e 0 296
e 1 405
e 1 139
e 1 844
e 1 105
e 2 757
e 2 653
e 2 563
e 2 965
e 2 800
e 2 241
e 2 182
e 4 651
e 4 967
e 4 823
e 5 36
e 5 623
e 5 901
e 6 927
e 6 51
e 6 975
e 6 858
e 6 65
e 7 264
e 7 957
e 7 977
e 7 191
e 7 953
e 7 741
e 9 816
e 9 431
e 9 278
e 9 604
e 9 895
e 9 414
e 9 124
e 9 631
e 10 122
e 10 688
e 10 463
e 10 876
e 10 355
e 11 545
e 11 558
e 11 642
e 12 983
e 12 257
e 12 625
e 12 39
e 12 150
e 12 125
e 13 674
e 13 276
e 13 29
e 13 721
e 14 853
e 14 587
e 14 625
e 14 154
e 15 257
e 15 485
e 15 173
e 16 427
e 16 771
e 16 175
e 16 122
e 17 677
e 17 497
e 17 496
e 18 832
e 18 114
e 18 364
e 18 981
e 18 440
e 18 855
e 19 360
e 19 367
e 19 866
e 19 820
e 19 256
e 19 927
e 19 651
e 20 197
e 20 662
e 20 173
e 21 317
e 21 958
e 21 853
e 22 932
e 22 472
e 22 841
e 23 866
e 23 811
e 23 675
e 23 995
e 23 265
e 23 364
e 23 82
e 24 90
e 24 352
e 24 574
e 25 976
e 25 885
e 25 470
e 25 296
e 26 706
e 26 432
e 26 192
e 27 663
e 27 859
e 27 890
e 27 800
e 27 773
e 27 351
e 29 392
e 29 936
e 29 481
e 30 399
e 30 105
e 30 204
e 30 264
e 30 617
e 32 412
e 32 107
e 32 48
e 32 350
e 32 341
e 32 798
e 32 712
e 33 395
e 33 306
e 33 794
e 33 344
e 33 677
e 33 524
e 33 338
e 33 348
e 33 734
e 33 966
e 34 710
e 34 98
e 34 315
e 34 771
e 35 564
e 35 919
e 35 100
e 35 870
e 35 443
e 36 562
e 36 411
e 36 174
e 37 285
e 37 242
e 37 106
e 37 369
e 39 276
e 39 728
e 39 681
e 39 161
e 39 760
e 40 103
e 40 255
e 40 125
e 40 499
e 40 230
e 40 193
e 40 321
e 40 901
e 41 618
e 41 869
e 41 520
e 41 510
e 41 741
e 41 158
e 42 760
e 42 817
e 42 440
e 42 211
e 42 703
e 43 876
e 43 132
e 43 860
e 46 69
e 46 54
e 46 801
e 46 309
e 46 717
e 46 885
e 46 675
e 46 455
e 46 486
e 46 245
e 47 301
e 47 369
e 47 880
e 47 143
e 47 740
e 48 668
e 48 512
e 48 875
e 48 855
e 48 669
e 49 505
e 49 670
e 49 346
e 49 417
e 49 906
e 49 440
e 50 145
e 50 714
e 50 757
e 50 191
e 51 77
e 51 300
e 51 227
e 54 551
e 54 486
e 55 863
e 55 532
e 55 187
e 55 105
e 56 747
e 56 456
e 56 310
e 57 690
e 57 806
e 57 564
e 57 583
e 59 782
e 59 687
e 59 522
e 59 307
e 59 929
e 59 795
e 60 607
e 60 417
e 60 897
e 60 333
e 62 263
e 62 77
e 62 737
e 62 970
e 63 329
e 63 742
e 63 324
e 63 436
e 63 118
e 64 863
e 64 518
e 64 496
e 65 575
e 65 457
e 65 631
e 66 679
e 66 620
e 66 954
e 66 353
e 67 463
e 67 966
e 67 570
e 67 873
e 69 290
e 69 451
e 69 483
e 69 707
e 70 138
e 70 862
e 70 306
e 70 838
e 70 746
e 70 625
e 70 370
e 70 73
e 71 319
e 71 185
e 71 541
e 71 475
e 73 592
e 73 951
e 73 829
e 76 583
e 76 85
e 76 287
e 76 649
e 77 468
e 77 345
e 77 644
e 77 897
e 77 189
e 78 637
e 78 853
e 78 323
e 79 880
e 79 809
e 79 448
e 80 574
e 80 652
e 80 417
e 81 265
e 81 751
e 81 161
e 82 270
e 82 211
e 82 269
e 82 327
e 83 322
e 83 740
e 83 921
e 83 756
e 83 90
e 85 790
e 85 381
e 85 523
e 86 637
e 86 868
e 86 804
e 86 821
e 86 509
e 86 623
e 86 584
e 86 408
e 86 684
e 87 520
e 87 206
e 87 931
e 90 223
e 90 876
e 90 468
e 90 485
e 90 675
e 90 260
e 90 879
e 92 276
e 92 442
e 92 983
e 93 490
e 93 525
e 93 368
e 93 829
e 94 272
e 94 405
e 94 171
e 96 662
e 96 525
e 96 180
e 96 178
e 97 233
e 97 205
e 97 752
e 98 820
e 98 200
e 99 779
e 99 948
e 99 242
e 99 758
e 99 116
e 99 448
e 100 734
e 100 565
e 101 185
e 101 556
e 101 584
e 101 929
e 103 684
e 103 592
e 103 485
e 104 887
e 104 246
e 104 944
e 104 945
e 105 387
e 105 517
e 105 116
e 105 547
e 105 161
e 105 441
e 105 823
e 105 816
e 106 241
e 106 264
e 106 280
e 107 492
e 107 803
e 107 261
e 107 887
e 107 140
e 107 138
e 107 544
e 107 692
e 107 528
e 108 220
e 108 155
e 108 983
e 108 152
e 109 468
e 109 187
e 109 750
e 109 931
e 110 551
e 110 933
e 110 747
e 111 196
e 111 179
e 111 890
e 113 711
e 113 573
e 113 229
e 113 818
e 113 813
e 114 437
e 114 417
e 114 247
e 114 223
e 114 665
e 115 711
e 115 599
e 115 346
e 115 634
e 115 153
e 116 905
e 116 898
e 116 595
e 116 759
e 116 403
e 116 586
e 117 899
e 117 632
e 117 221
e 117 782
e 118 313
e 118 932
e 119 652
e 119 731
e 119 833
e 120 959
e 120 938
e 120 405
e 120 148
e 121 220
e 121 508
e 121 181
e 121 318
e 122 859
e 122 609
e 123 348
e 123 128
e 123 634
e 124 451
e 124 880
e 124 909
e 124 481
e 125 220
e 125 361
e 125 946
e 127 302
e 127 665
e 127 650
e 127 425
e 128 759
e 128 589
e 128 583
e 128 292
e 128 368
e 129 278
e 129 790
e 129 636
e 129 897
e 129 470
e 129 149
e 129 675
e 129 721
e 131 963
e 131 345
e 131 438
e 132 475
e 132 978
e 132 607
e 132 697
e 132 258
e 132 162
e 132 307
e 132 588
e 134 845
e 134 663
e 134 435
e 134 160
e 135 245
e 135 160
e 135 729
e 138 474
e 138 146
e 139 951
e 139 779
e 140 171
e 140 160
e 140 556
e 140 861
e 141 963
e 141 679
e 141 695
e 142 246
e 142 248
e 142 520
e 143 328
e 143 767
e 143 581
e 143 380
e 143 789
e 144 705
e 144 952
e 144 749
e 144 860
e 144 419
e 145 860
e 145 832
e 145 513
e 145 856
e 145 206
e 145 893
e 145 374
e 145 462
e 145 756
e 145 920
e 145 863
e 145 715
e 146 316
e 146 607
e 146 844
e 147 382
e 147 498
e 147 545
e 147 550
e 148 895
e 148 187
e 148 912
e 148 883
e 149 293
e 149 664
e 150 336
e 150 563
e 150 921
e 150 579
e 150 539
e 151 229
e 151 730
e 151 616
e 152 207
e 152 608
e 152 346
e 152 899
e 153 669
e 153 225
e 153 914
e 154 833
e 154 395
e 155 321
e 155 759
e 155 480
e 156 619
e 156 786
e 156 351
e 157 301
e 157 441
e 157 219
e 157 887
e 158 397
e 158 564
e 159 212
e 159 581
e 159 178
e 159 392
e 160 345
e 160 265
e 161 510
e 161 281
e 161 731
e 161 707
e 161 837
e 162 180
e 162 706
e 163 941
e 163 735
e 163 480
e 163 929
e 165 580
e 165 322
e 165 264
e 165 303
e 165 477
e 166 229
e 166 638
e 166 590
e 166 701
e 166 862
e 166 811
e 169 838
e 169 455
e 169 734
e 169 299
e 170 474
e 170 620
e 170 719
e 170 422
e 171 339
e 171 186
e 171 569
e 172 333
e 172 910
e 172 190
e 172 718
e 173 659
e 173 800
e 173 821
e 174 265
e 174 571
e 174 709
e 174 238
e 174 996
e 175 459
e 175 775
e 176 708
e 176 236
e 176 617
e 177 287
e 177 789
e 177 338
e 178 982
e 178 785
e 179 459
e 179 721
e 179 756
e 180 955
e 180 983
e 180 860
e 181 841
e 181 741
e 181 615
e 182 319
e 182 550
e 182 874
e 182 192
e 182 223
e 184 884
e 184 284
e 184 369
e 184 995
e 184 448
e 184 705
e 184 342
e 185 580
e 185 490
e 186 838
e 186 375
e 186 386
e 187 694
e 187 336
e 187 588
e 187 707
e 188 727
e 188 347
e 188 483
e 188 933
e 188 758
e 189 628
e 189 487
e 190 387
e 190 293
e 190 585
e 191 251
e 191 783
e 191 820
e 191 292
e 191 365
e 191 747
e 191 905
e 192 712
e 192 972
e 192 554
e 192 201
e 192 270
e 192 357
e 193 553
e 193 450
e 193 482
e 194 457
e 194 866
e 194 657
e 194 817
e 194 345
e 195 367
e 195 741
e 195 745
e 196 728
e 196 725
e 197 523
e 197 894
e 200 847
e 200 647
e 200 490
e 200 525
e 200 890
e 200 685
e 201 619
e 201 981
e 201 538
e 202 644
e 202 859
e 202 491
e 202 773
e 202 220
e 202 513
e 204 374
e 204 327
e 204 826
e 204 936
e 205 579
e 205 281
e 206 657
e 206 958
e 206 389
e 206 438
e 206 823
e 207 990
e 207 670
e 207 480
e 207 433
e 207 474
e 211 863
e 211 925
e 211 773
e 211 750
e 211 450
e 212 466
e 212 565
e 212 856
e 212 270
e 212 957
e 218 405
e 218 893
e 218 871
e 219 701
e 219 554
e 220 781
e 221 858
e 221 997
e 223 229
e 223 541
e 225 975
e 225 354
e 225 369
e 225 497
e 227 433
e 227 791
e 227 313
e 227 942
e 227 767
e 228 741
e 228 780
e 228 355
e 228 507
e 229 906
e 229 248
e 229 615
e 230 496
e 230 340
e 230 562
e 230 875
e 233 290
e 233 845
e 233 491
e 233 345
e 233 634
e 233 417
e 234 578
e 234 491
e 234 866
e 236 320
e 236 345
e 238 663
e 238 818
e 238 313
e 238 877
e 239 443
e 239 371
e 239 949
e 241 281
e 241 932
e 241 291
e 241 552
e 241 340
e 242 798
e 242 256
e 245 805
e 245 827
e 245 922
e 246 881
e 246 619
e 246 670
e 246 604
e 246 710
e 247 702
e 247 526
e 247 616
e 248 384
e 248 285
e 248 956
e 248 947
e 248 256
e 249 580
e 249 405
e 249 802
e 251 368
e 251 353
e 251 714
e 251 666
e 252 980
e 252 666
e 252 440
e 252 694
e 253 506
e 253 958
e 253 806
e 255 324
e 255 890
e 255 477
e 255 936
e 256 945
e 256 821
e 256 335
e 257 868
e 257 608
e 257 967
e 257 274
e 257 281
e 258 612
e 258 900
e 260 965
e 260 495
e 260 682
e 260 470
e 260 726
e 261 319
e 261 568
e 261 722
e 261 377
e 261 549
e 263 887
e 263 436
e 264 832
e 264 592
e 264 625
e 265 699
e 265 747
e 265 284
e 265 866
e 265 898
e 266 296
e 266 558
e 266 555
e 267 693
e 267 995
e 267 590
e 267 877
e 267 678
e 269 370
e 269 826
e 269 715
e 270 271
e 270 433
e 270 336
e 271 783
e 271 568
e 271 386
e 271 619
e 272 965
e 272 380
e 272 884
e 273 355
e 273 741
e 273 274
e 273 875
e 273 547
e 274 595
e 274 632
e 274 900
e 276 966
e 278 525
e 278 850
e 278 391
e 278 654
e 280 527
e 280 388
e 280 716
e 281 580
e 282 568
e 282 922
e 282 650
e 282 459
e 283 459
e 283 996
e 283 644
e 284 846
e 284 849
e 284 597
e 285 306
e 285 494
e 285 319
e 287 317
e 287 549
e 287 968
e 289 722
e 289 901
e 289 591
e 289 694
e 289 806
e 290 534
e 290 597
e 290 976
e 290 309
e 290 756
e 290 820
e 291 991
e 291 470
e 291 869
e 291 734
e 292 678
e 292 863
e 292 605
e 293 922
e 293 859
e 293 353
e 296 529
e 296 549
e 298 993
e 298 336
e 298 924
e 299 615
e 299 746
e 299 578
e 299 731
e 300 679
e 300 312
e 300 461
e 300 492
e 300 720
e 301 587
e 301 988
e 302 394
e 302 966
e 302 817
e 302 580
e 303 565
e 303 752
e 303 642
e 303 780
e 303 448
e 306 585
e 306 802
e 307 360
e 307 929
e 307 540
e 307 719
e 308 659
e 308 494
e 308 945
e 308 393
e 308 844
e 308 389
e 309 745
e 309 996
e 309 716
e 310 897
e 310 609
e 310 660
e 310 345
e 310 742
e 310 935
e 311 565
e 311 854
e 311 838
e 311 942
e 312 813
e 312 316
e 312 467
e 312 355
e 312 600
e 313 482
e 315 711
e 315 530
e 315 664
e 315 751
e 315 682
e 315 485
e 316 818
e 316 392
e 317 633
e 317 348
e 317 795
e 317 744
e 317 959
e 318 967
e 318 555
e 319 394
e 319 772
e 319 807
e 319 625
e 319 931
e 320 625
e 320 820
e 320 636
e 320 797
e 320 978
e 321 855
e 321 709
e 321 727
e 322 518
e 322 833
e 322 747
e 322 403
e 322 951
e 323 725
e 323 753
e 323 446
e 324 629
e 325 858
e 325 408
e 325 779
e 327 474
e 328 860
e 328 816
e 329 988
e 329 604
e 329 582
e 332 342
e 332 990
e 332 589
e 332 461
e 333 730
e 333 533
e 335 980
e 335 650
e 335 500
e 335 517
e 335 508
e 338 593
e 338 637
e 339 965
e 339 627
e 339 405
e 339 499
e 339 828
e 340 909
e 340 351
e 340 843
e 341 984
e 341 604
e 341 462
e 341 427
e 341 377
e 342 838
e 342 744
e 342 563
e 344 614
e 344 540
e 345 875
e 345 849
e 345 642
e 345 617
e 345 574
e 346 364
e 346 837
e 347 431
e 347 585
e 348 392
e 348 644
e 348 706
e 348 912
e 348 807
e 348 630
e 348 611
e 349 662
e 349 532
e 349 893
e 350 584
e 350 578
e 350 441
e 350 883
e 350 921
e 350 668
e 351 801
e 352 465
e 352 603
e 352 578
e 352 534
e 353 383
e 354 924
e 354 425
e 354 544
e 355 588
e 355 411
e 357 933
e 357 628
e 359 929
e 359 534
e 359 374
e 359 655
e 359 615
e 360 662
e 360 412
e 360 790
e 360 466
e 360 520
e 361 709
e 361 744
e 361 600
e 361 672
e 364 660
e 365 768
e 365 437
e 365 496
e 367 589
e 368 504
e 368 816
e 368 554
e 368 428
e 369 517
e 369 760
e 370 420
e 371 803
e 371 879
e 371 736
e 372 736
e 372 672
e 372 730
e 372 886
e 372 695
e 374 579
e 374 474
e 374 740
e 375 862
e 375 868
e 375 556
e 375 406
e 377 721
e 377 386
e 380 855
e 380 622
e 381 805
e 381 430
e 381 733
e 381 623
e 382 431
e 382 847
e 383 964
e 383 405
e 383 931
e 383 733
e 384 799
e 384 532
e 386 980
e 386 452
e 386 885
e 386 629
e 387 804
e 388 955
e 388 997
e 388 459
e 388 461
e 389 407
e 389 701
e 391 568
e 391 550
e 392 692
e 392 491
e 393 474
e 393 752
e 394 752
e 395 739
e 395 495
e 397 708
e 397 960
e 398 418
e 398 571
e 398 823
e 399 799
e 399 493
e 399 662
e 399 406
e 401 712
e 401 643
e 401 913
e 401 828
e 403 795
e 403 538
e 403 938
e 405 745
e 405 744
e 406 616
e 406 729
e 407 580
e 407 964
e 407 962
e 408 843
e 408 423
e 408 958
e 409 457
e 409 863
e 409 988
e 411 845
e 412 433
e 412 476
e 413 486
e 413 547
e 413 806
e 413 605
e 413 620
e 413 888
e 413 725
e 413 586
e 413 684
e 413 622
e 414 809
e 414 678
e 414 495
e 416 938
e 416 455
e 416 801
e 417 508
e 417 929
e 418 667
e 418 854
e 419 464
e 419 712
e 419 870
e 419 589
e 419 909
e 419 772
e 420 822
e 420 634
e 420 711
e 422 717
e 422 789
e 423 589
e 423 906
e 424 975
e 424 720
e 424 993
e 425 442
e 425 853
e 425 781
e 425 919
e 425 838
e 427 972
e 427 981
e 427 747
e 427 428
e 428 791
e 428 540
e 430 948
e 430 938
e 430 708
e 431 981
e 431 675
e 431 667
e 431 547
e 431 846
e 432 476
e 432 856
e 432 466
e 433 705
e 433 465
e 433 647
e 435 760
e 435 750
e 435 909
e 436 881
e 436 530
e 437 571
e 438 858
e 441 675
e 441 823
e 441 941
e 441 906
e 441 585
e 442 462
e 442 452
e 443 521
e 443 728
e 443 745
e 446 590
e 446 657
e 448 768
e 450 900
e 451 603
e 451 588
e 451 778
e 452 768
e 452 692
e 452 605
e 452 895
e 455 936
e 455 509
e 455 739
e 455 681
e 455 984
e 456 869
e 456 499
e 456 818
e 456 682
e 457 868
e 460 997
e 460 620
e 460 967
e 460 606
e 461 961
e 462 955
e 462 726
e 462 585
e 463 679
e 464 956
e 464 795
e 464 906
e 464 875
e 464 778
e 465 668
e 465 785
e 465 817
e 466 588
e 466 712
e 467 550
e 467 860
e 467 794
e 468 979
e 470 524
e 470 826
e 472 970
e 472 629
e 472 657
e 473 925
e 473 618
e 473 578
e 474 492
e 475 967
e 476 616
e 476 786
e 476 744
e 477 715
e 477 803
e 477 684
e 477 827
e 477 890
e 477 959
e 480 619
e 480 751
e 480 844
e 481 588
e 481 753
e 481 579
e 482 863
e 482 658
e 482 805
e 483 972
e 483 976
e 483 951
e 483 541
e 483 991
e 483 846
e 485 512
e 486 861
e 486 803
e 486 775
e 487 614
e 487 969
e 490 856
e 490 771
e 490 869
e 490 824
e 491 966
e 491 679
e 492 678
e 492 731
e 493 742
e 493 512
e 493 876
e 493 663
e 493 561
e 493 975
e 494 562
e 494 717
e 494 791
e 495 913
e 495 636
e 496 777
e 497 620
e 497 682
e 497 634
e 497 568
e 497 958
e 498 847
e 498 524
e 498 716
e 498 931
e 498 593
e 499 694
e 499 923
e 499 853
e 499 919
e 499 735
e 500 574
e 500 805
e 500 685
e 500 826
e 504 945
e 504 777
e 505 807
e 505 581
e 505 907
e 506 729
e 506 827
e 507 716
e 507 644
e 508 540
e 508 960
e 508 522
e 509 678
e 510 739
e 511 957
e 511 581
e 511 660
e 511 615
e 511 630
e 511 970
e 511 922
e 512 554
e 513 632
e 513 714
e 513 606
e 513 898
e 513 625
e 516 855
e 516 677
e 516 908
e 516 547
e 516 954
e 517 961
e 517 631
e 518 582
e 521 522
e 521 750
e 522 924
e 522 996
e 523 583
e 524 971
e 524 575
e 525 634
e 525 758
e 526 980
e 526 757
e 526 945
e 527 735
e 527 737
e 527 997
e 527 983
e 527 723
e 527 631
e 527 828
e 527 692
e 528 824
e 528 741
e 528 959
e 529 874
e 529 658
e 530 886
e 530 789
e 533 547
e 533 747
e 534 964
e 534 688
e 534 614
e 534 914
e 534 969
e 538 888
e 539 921
e 539 607
e 539 925
e 540 659
e 540 588
e 541 906
e 544 921
e 545 552
e 547 948
e 547 826
e 549 953
e 549 921
e 550 634
e 550 970
e 550 877
e 551 804
e 551 782
e 552 786
e 552 565
e 552 979
e 553 695
e 553 919
e 554 709
e 554 800
e 554 837
e 554 720
e 555 653
e 555 684
e 556 886
e 556 798
e 556 888
e 556 916
e 558 828
e 558 678
e 561 802
e 561 649
e 561 615
e 562 841
e 562 670
e 562 585
e 563 573
e 564 682
e 565 906
e 569 837
e 569 778
e 570 797
e 570 688
e 571 804
e 573 850
e 574 753
e 574 888
e 574 841
e 575 946
e 578 640
e 578 664
e 579 978
e 580 630
e 582 962
e 583 945
e 583 884
e 584 695
e 585 608
e 586 779
e 587 595
e 587 942
e 587 600
e 587 781
e 588 718
e 589 941
e 589 722
e 591 949
e 591 711
e 592 599
e 592 947
e 592 890
e 593 677
e 594 663
e 594 855
e 594 745
e 594 716
e 595 949
e 597 957
e 597 665
e 599 859
e 600 768
e 601 899
e 601 786
e 601 669
e 601 799
e 603 980
e 603 717
e 604 894
e 604 952
e 605 649
e 605 803
e 605 740
e 605 775
e 606 978
e 606 923
e 606 935
e 607 797
e 607 925
e 608 838
e 609 991
e 609 739
e 611 920
e 611 679
e 611 919
e 611 976
e 611 708
e 611 843
e 612 632
e 612 921
e 612 617
e 614 991
e 615 677
e 616 643
e 617 736
e 618 654
e 619 828
e 620 801
e 622 942
e 627 727
e 627 873
e 627 971
e 627 643
e 628 968
e 628 780
e 630 695
e 630 931
e 631 679
e 631 912
e 631 890
e 632 971
e 632 886
e 633 747
e 633 804
e 633 890
e 634 977
e 634 768
e 636 947
e 636 678
e 638 801
e 638 961
e 638 765
e 638 752
e 638 906
e 638 762
e 640 888
e 640 968
e 640 993
e 643 960
e 643 876
e 647 765
e 647 862
e 650 932
e 651 920
e 652 758
e 652 723
e 652 753
e 653 931
e 654 953
e 654 966
e 655 809
e 655 737
e 655 935
e 658 666
e 658 697
e 658 980
e 659 886
e 660 767
e 660 954
e 662 736
e 663 670
e 663 734
e 664 705
e 665 762
e 666 782
e 666 990
e 667 861
e 668 883
e 672 997
e 672 978
e 674 725
e 674 677
e 675 728
e 675 968
e 677 710
e 677 707
e 678 824
e 679 981
e 679 875
e 679 730
e 681 714
e 682 806
e 682 982
e 682 937
e 685 944
e 685 840
e 685 794
e 687 946
e 687 798
e 688 723
e 690 750
e 690 757
e 693 859
e 693 783
e 693 735
e 694 709
e 695 859
e 697 863
e 699 746
e 699 961
e 702 973
e 702 955
e 703 730
e 703 929
e 705 752
e 705 750
e 706 829
e 711 970
e 714 953
e 714 795
e 716 866
e 717 721
e 718 725
e 718 821
e 718 873
e 719 959
e 721 780
e 722 807
e 722 795
e 722 847
e 725 820
e 726 907
e 727 827
e 728 861
e 729 782
e 729 803
e 730 758
e 730 949
e 730 803
e 733 948
e 733 849
e 735 747
e 737 874
e 739 853
e 739 916
e 740 893
e 746 893
e 746 936
e 749 925
e 749 973
e 749 944
e 750 849
e 752 932
e 753 777
e 758 925
e 758 869
e 759 861
e 760 908
e 762 897
e 762 870
e 765 975
e 765 782
e 767 771
e 771 952
e 772 990
e 773 797
e 773 920
e 774 850
e 774 787
e 774 901
e 775 984
e 777 961
e 777 849
e 778 945
e 781 805
e 781 897
e 782 906
e 783 923
e 785 908
e 787 802
e 787 790
e 789 907
e 790 833
e 791 807
e 794 869
e 794 983
e 798 920
e 799 809
e 800 912
e 802 895
e 802 963
e 804 965
e 811 937
e 813 924
e 816 850
e 821 970
e 822 913
e 822 908
e 822 880
e 824 967
e 826 876
e 827 957
e 828 871
e 828 887
e 833 991
e 837 965
e 840 876
e 840 871
e 841 870
e 841 959
e 844 997
e 849 879
e 854 901
e 854 946
e 854 884
e 856 933
e 858 863
e 858 861
e 861 890
e 863 905
e 863 873
e 868 948
e 869 949
e 869 964
e 874 932
e 875 982
e 877 945
e 877 932
e 879 996
e 879 948
e 881 973
e 883 906
e 885 931
e 886 966
e 887 933
e 887 912
e 894 964
e 895 948
e 898 920
e 899 969
e 905 977
e 908 910
e 909 929
e 912 927
e 913 980
e 914 988
e 916 937
e 920 949
e 937 997
e 946 993
e 954 957
e 955 962
e 956 965
e 957 962
e 962 976
e 979 980
e 980 996
